p cnf 23 11
e 1 0
a 2 3 4 0
e 5 0
a 6 7 0
e 8 9 0
a 10 0
e 11 12 0
a 13 14 0
e 15 0
a 16 17 0
e 18 19 0
a 20 21 0
e 22 23 0
-8 -21 -1 2 12 0
-17 3 -6 0
-11 2 -7 0
19 -15 1 0
5 14 21 9 19 0
4 3 22 13 0
21 -2 -11 9 19 0
-6 -1 -8 -19 -11 0
-6 -17 21 0
-1 8 3 23 22 0
-19 -22 18 17 21 0
